language Essence 1.3

letting class be function(1 --> 1, 2 --> 2, 3 --> 3, 4 --> 2, 5 --> 2, 6 --> 1, 7 --> 1)
letting deck_length be 26
letting deck_width be 41
letting length be function(1 --> 26, 2 --> 1, 3 --> 1, 4 --> 2, 5 --> 1, 6 --> 1, 7 --> 1)
letting n_classes be 3
letting n_containers be 7
letting separation be function({1, 2} --> 5)
letting width be function(1 --> 7, 2 --> 16, 3 --> 4, 4 --> 3, 5 --> 2, 6 --> 2, 7 --> 1)
